==> NODEPROBINGEFFORT    = 0.5
==> OUTPUTLOG            = 1
==> SBESTIMATE           = 5
==> MUTEXCALLBACKS       = 0
==> HEUREMPHASIS         = 0
FICO Xpress v8.13.3, Hyper, solve started 22:59:49, Jun 20, 2022
Heap usage: 578KB (peak 578KB, 1597KB system)
Minimizing MILP xprs_265534c3270 using up to 12 threads, with these control settings:
OUTPUTLOG = 1
SBESTIMATE = 5
MUTEXCALLBACKS = 0
HEUREMPHASIS = 0
NODEPROBINGEFFORT = .5
Original problem has:
      2590 rows         1098 cols         9274 elements      1098 globals
Presolved problem has:
       782 rows          630 cols         3428 elements       630 globals
LP relaxation tightened
Presolve finished in 0 seconds
Heap usage: 1088KB (peak 2314KB, 1599KB system)

Coefficient range                    original                 solved        
  Coefficients   [min,max] : [ 1.00e+00,  1.00e+01] / [ 1.25e-01,  1.25e+00]
  RHS and bounds [min,max] : [ 1.00e+00,  5.10e+01] / [ 1.00e+00,  7.50e+00]
  Objective      [min,max] : [ 2.00e+00,  1.02e+02] / [ 2.00e+00,  9.76e+01]
Autoscaling applied standard scaling

Will try to keep branch and bound tree memory usage below 9.5GB
Starting concurrent solve with dual (1 thread)

 Concurrent-Solve,   0s
            Dual        
----- interrupted ------
Concurrent statistics:
      Dual: 0 simplex iterations, 0.00s
Problem is unfinished
 *** Search unfinished ***    Time:     0 Nodes:          0
  Solution time / primaldual integral :         0s/ 100.000000%
  Number of solutions found / nodes   :         0 /         0
